\ENCODING=ISO-8859-1
\Problem name: IloCplex

Maximize
 obj1:
Subject To
 c1: 13 x1 + 5 x2 + 5 x3 + 9 x4 + 10 x5 + 11 x6 + 14 x7 + 15 x8 + 12 x9
     + 10 x10 <= 52
 c2: - 450 x1 - 171 x2 - 947 x3 - 670 x4 - 774 x5 - 523 x6 - 427 x7 - 901 x8
     - 288 x9 - 367 x10 <= -10000
 c3: - 98 x1 - 465 x2 - 492 x3 - 435 x4 - 822 x5 - 599 x6 - 631 x7 - 386 x8
     - 369 x9 - 994 x10 <= -20050
 c4: - 494 x1 - 237 x2 - 818 x3 - 340 x4 - 621 x5 - 270 x6 - 357 x7 - 125 x8
     - 80 x9 - 811 x10 <= -14000
Bounds
 0 <= x1 <= 1
 0 <= x2 <= 1
 0 <= x3 <= 1
 0 <= x4 <= 1
 0 <= x5 <= 1
 0 <= x6 <= 1
 0 <= x7 <= 1
 0 <= x8 <= 1
 0 <= x9 <= 1
 0 <= x10 <= 1
End
